rc101_2
0 95 74 103 60 105 73 86 59 101 98 76 77 46 5 49 44 43 41 40 42 45 48 47 66 75 7 11 1 6 9 50 10 8 51 13 12 84 83 17 52 21 18 2 16 15 14 20 19 22 78 65 93 58 87 70 71 0 85 96 97 99 72 55 37 35 33 32 34 36 39 38 4 31 67 89 90 81 56 68 94 23 53 3 24 54 29 25 27 26 28 30 82 63 64 92 91 2 104 62 57 79 102 80 88 69 61 0 100 0